! HF STO-3G

* xyz 0 1
H   0.0   0.0   0.0
H   0.0   0.0   0.74
*

